02724273386115132100220219512922824113712211819074225132892002331251851271721211885419186150211571602302642232213215157202765123138205135377951196247210815819436133108942381791471111361789913959842011731136301741662271771641425010621256821037610939197215219114147802388332081562261481697218916116248165451684171872091023718222912664236112469071110116691631644922170491701714593119432041401552923410211510714183105751011121929617524818111467771341531284198235239140113621761302228524521806622418104244253120158632171241311982268461541432012452189581957834243187831591995586212061442162231841931731495324020791151469723122812924916735214602030